/*********************************************
 * OPL 22.1.2.0 Data
 * Author: adrien.dacostaveiga
 * Creation Date: Apr 20, 2026 at 11:41:53 AM
 *********************************************/

// =====================================================
// AIRLAND 2 - JEU DE DONNÉES POUR P1
// Pénalités pondérées d’avance et de retard
// =====================================================

n = 15;
m = 1;

// ======================
// DATES D’ATTERRISSAGE LES PLUS TÔT
// ======================
E = [
  54, 115, 9, 14, 25,
  32, 34, 34, 40, 59,
  191, 176, 85, 77, 201
];

// ======================
// DATES D’ATTERRISSAGE LES PLUS TARD
// ======================
L = [
  129, 190, 84, 89, 100,
  107, 109, 109, 115, 134,
  266, 251, 160, 152, 276
];

// ======================
// DATES D’ATTERRISSAGE CIBLES
// ======================
T = [
  155, 250, 93, 98, 111,
  120, 121, 120, 128, 151,
  341, 313, 181, 171, 342
];

// ======================
// POIDS DE PÉNALITÉ
// ======================
cMinus = [
  10,10,30,30,30,
  30,30,30,30,30,
  10,10,30,30,10
];

cPlus = [
  10,10,30,30,30,
  30,30,30,30,30,
  10,10,30,30,10
];

// ======================
// MATRICE DES TEMPS DE SÉPARATION
// ======================
s = [
 [99999,3,15,15,15,15,15,15,15,15,15,15,15,15,15],
 [3,99999,15,15,15,15,15,15,15,15,15,15,15,15,15],
 [15,15,99999,8,8,8,8,8,8,8,8,8,8,8,8],
 [15,15,8,99999,8,8,8,8,8,8,8,8,8,8,8],
 [15,15,8,8,99999,8,8,8,8,8,8,8,8,8,8],
 [15,15,8,8,8,99999,8,8,8,8,8,8,8,8,8],
 [15,15,8,8,8,8,99999,8,8,8,8,8,8,8,8],
 [15,15,8,8,8,8,8,99999,8,8,8,8,8,8,8],
 [15,15,8,8,8,8,8,8,99999,8,8,8,8,8,8],
 [15,15,8,8,8,8,8,8,8,99999,8,8,8,8,8],
 [15,15,8,8,8,8,8,8,8,8,99999,3,15,15,3],
 [15,15,8,8,8,8,8,8,8,8,3,99999,15,15,3],
 [15,15,8,8,8,8,8,8,8,8,15,15,99999,8,15],
 [15,15,8,8,8,8,8,8,8,8,15,15,8,99999,15],
 [15,15,8,8,8,8,8,8,8,8,3,3,15,15,99999]
];

// ======================
// CONSTANTE BIG-M
// ======================
M = 10000;